benchmarks/bfuzz0/14442196652397821768557529428982515805.smt2
(set-logic QF_FP)
(declare-const x0 (_ FloatingPoint 11 53))
(declare-const x1 (_ FloatingPoint 11 53))
(declare-const x2 (_ FloatingPoint 11 53))
(declare-const x3 (_ FloatingPoint 11 53))
(declare-const x4 (_ FloatingPoint 11 53))
(declare-const x5 (_ FloatingPoint 11 53))
(declare-const x6 (_ FloatingPoint 11 53))
(declare-const x7 (_ FloatingPoint 11 53))
(declare-const x8 (_ FloatingPoint 11 53))
(declare-const x9 (_ FloatingPoint 11 53))
(declare-const x10 (_ FloatingPoint 11 53))
(declare-const x11 (_ FloatingPoint 11 53))
(declare-const x12 (_ FloatingPoint 11 53))
(declare-const x13 (_ FloatingPoint 11 53))
(declare-const x14 (_ FloatingPoint 11 53))
(declare-const x15 (_ FloatingPoint 11 53))
(declare-const x16 (_ FloatingPoint 11 53))
(declare-const x17 (_ FloatingPoint 11 53))
(declare-const x18 (_ FloatingPoint 11 53))
(declare-const x19 (_ FloatingPoint 11 53))
(declare-const x20 (_ FloatingPoint 11 53))
(declare-const x21 (_ FloatingPoint 11 53))
(declare-const x22 (_ FloatingPoint 11 53))
(declare-const x23 (_ FloatingPoint 11 53))
(assert (fp.gt (fp.sub RNE x12 x5) (fp.add RNE x4 x1)))
(assert (fp.geq (fp.sub RNE x2 x0) (fp.div RNE x7 x6)))
(assert (fp.lt (fp.mul RNE x17 x0) (fp.mul RNE x6 x14)))
(assert (fp.geq (fp.mul RNE x3 x14) (fp.sub RNE x12 x9)))
(assert (fp.leq (fp.mul RNE x6 x23) (fp.mul RNE x14 x14)))
(assert (fp.gt (fp.div RNE x8 x13) (fp.div RNE x11 x10)))
(check-sat)
