db/data/14442196652397821768557529428982515805.z3.out
-------------------
2500.199413102
